p tw 1751 2601
1 2
1 179
3 4
3 107
3 108
5 6
5 181
7 8
7 110
7 111
9 10
9 108
9 109
11 12
11 113
11 114
13 14
13 116
13 117
15 16
15 111
15 112
17 18
17 119
17 120
19 20
19 114
19 115
21 22
21 122
21 123
23 24
23 190
25 26
25 125
25 126
27 28
27 117
27 118
29 30
29 128
29 129
31 32
31 120
31 121
33 34
33 131
33 132
35 36
35 123
35 124
37 38
37 134
37 135
39 40
39 198
41 42
41 137
41 138
43 44
43 126
43 127
45 46
45 140
45 141
47 48
47 129
47 130
49 50
49 143
49 144
51 52
51 132
51 133
53 54
53 146
53 147
55 56
55 135
55 136
57 58
57 207
59 60
59 149
59 150
61 62
61 138
61 139
63 64
63 152
63 153
65 66
65 141
65 142
67 68
67 155
67 156
69 70
69 144
69 145
71 72
71 158
71 159
73 74
73 147
73 148
75 76
75 150
75 151
77 78
77 161
77 162
79 80
79 153
79 154
81 82
81 164
81 165
83 84
83 156
83 157
85 86
85 167
85 168
87 88
87 159
87 160
89 90
89 162
89 163
91 92
91 170
91 171
93 94
93 165
93 166
95 96
95 173
95 174
97 98
97 168
97 169
99 100
99 171
99 172
101 102
101 176
101 177
103 104
103 174
103 175
105 106
105 177
105 178
107 108
107 180
108 109
109 183
110 111
110 182
111 112
112 186
113 114
113 184
114 115
115 188
116 117
116 185
117 118
118 192
119 120
119 187
120 121
121 194
122 123
122 189
123 124
124 196
125 126
125 191
126 127
127 200
128 129
128 193
129 130
130 202
131 132
131 195
132 133
133 204
134 135
134 197
135 136
136 206
137 138
137 199
138 139
139 209
140 141
140 201
141 142
142 211
143 144
143 203
144 145
145 213
146 147
146 205
147 148
148 215
149 150
149 208
150 151
151 216
152 153
152 210
153 154
154 218
155 156
155 212
156 157
157 220
158 159
158 214
159 160
160 222
161 162
161 217
162 163
163 223
164 165
164 219
165 166
166 225
167 168
167 221
168 169
169 227
170 171
170 224
171 172
172 228
173 174
173 226
174 175
175 230
176 177
176 229
177 178
178 231
179 232
179 233
180 290
181 235
181 236
182 233
182 234
183 238
183 239
184 294
185 236
185 237
186 241
186 242
187 239
187 240
188 244
188 245
189 299
190 247
190 248
191 301
192 250
192 251
193 242
193 243
194 253
194 254
195 245
195 246
196 256
196 257
197 307
198 259
198 260
199 248
199 249
200 262
200 263
201 251
201 252
202 265
202 266
203 254
203 255
204 268
204 269
205 257
205 258
206 316
207 317
208 260
208 261
209 271
209 272
210 263
210 264
211 274
211 275
212 266
212 267
213 277
213 278
214 269
214 270
215 325
216 326
217 272
217 273
218 280
218 281
219 275
219 276
220 283
220 284
221 278
221 279
222 332
223 333
224 281
224 282
225 286
225 287
226 284
226 285
227 337
228 338
229 287
229 288
230 340
231 341
232 233
232 289
233 234
234 292
235 236
235 291
236 237
237 295
238 239
238 293
239 240
240 297
241 242
241 296
242 243
243 303
244 245
244 298
245 246
246 305
247 248
247 300
248 249
249 309
250 251
250 302
251 252
252 311
253 254
253 304
254 255
255 313
256 257
256 306
257 258
258 315
259 260
259 308
260 261
261 318
262 263
262 310
263 264
264 320
265 266
265 312
266 267
267 322
268 269
268 314
269 270
270 324
271 272
271 319
272 273
273 327
274 275
274 321
275 276
276 329
277 278
277 323
278 279
279 331
280 281
280 328
281 282
282 334
283 284
283 330
284 285
285 336
286 287
286 335
287 288
288 339
289 342
289 343
290 343
290 344
291 345
291 346
292 346
292 347
293 348
293 349
294 349
294 350
295 417
296 351
296 352
297 352
297 353
298 354
298 355
299 355
299 356
300 357
300 358
301 358
301 359
302 360
302 361
303 361
303 362
304 363
304 364
305 364
305 365
306 366
306 367
307 367
307 368
308 369
308 370
309 370
309 371
310 372
310 373
311 373
311 374
312 375
312 376
313 376
313 377
314 378
314 379
315 379
315 380
316 438
317 381
317 382
318 382
318 383
319 384
319 385
320 385
320 386
321 387
321 388
322 388
322 389
323 390
323 391
324 391
324 392
325 447
326 393
326 394
327 394
327 395
328 396
328 397
329 397
329 398
330 399
330 400
331 400
331 401
332 454
333 402
333 403
334 403
334 404
335 405
335 406
336 406
336 407
337 459
338 408
338 409
339 409
339 410
340 462
341 463
342 343
342 411
343 344
344 412
345 346
345 413
346 347
347 414
348 349
348 415
349 350
350 416
351 352
351 418
352 353
353 419
354 355
354 420
355 356
356 421
357 358
357 422
358 359
359 423
360 361
360 424
361 362
362 425
363 364
363 426
364 365
365 427
366 367
366 428
367 368
368 429
369 370
369 430
370 371
371 431
372 373
372 432
373 374
374 433
375 376
375 434
376 377
377 435
378 379
378 436
379 380
380 437
381 382
381 439
382 383
383 440
384 385
384 441
385 386
386 442
387 388
387 443
388 389
389 444
390 391
390 445
391 392
392 446
393 394
393 448
394 395
395 449
396 397
396 450
397 398
398 451
399 400
399 452
400 401
401 453
402 403
402 455
403 404
404 456
405 406
405 457
406 407
407 458
408 409
408 460
409 410
410 461
411 524
412 525
413 526
414 464
414 465
415 465
415 466
416 529
417 467
417 468
418 468
418 469
419 470
419 471
420 471
420 472
421 534
422 535
423 473
423 474
424 474
424 475
425 476
425 477
426 477
426 478
427 479
427 480
428 480
428 481
429 542
430 543
431 482
431 483
432 483
432 484
433 485
433 486
434 486
434 487
435 488
435 489
436 489
436 490
437 491
437 492
438 492
438 493
439 552
440 494
440 495
441 495
441 496
442 497
442 498
443 498
443 499
444 500
444 501
445 501
445 502
446 503
446 504
447 504
447 505
448 561
449 506
449 507
450 507
450 508
451 509
451 510
452 510
452 511
453 512
453 513
454 513
454 514
455 568
456 515
456 516
457 516
457 517
458 518
458 519
459 519
459 520
460 573
461 521
461 522
462 522
462 523
463 576
464 465
464 527
465 466
466 528
467 468
467 530
468 469
469 531
470 471
470 532
471 472
472 533
473 474
473 536
474 475
475 537
476 477
476 538
477 478
478 539
479 480
479 540
480 481
481 541
482 483
482 544
483 484
484 545
485 486
485 546
486 487
487 547
488 489
488 548
489 490
490 549
491 492
491 550
492 493
493 551
494 495
494 553
495 496
496 554
497 498
497 555
498 499
499 556
500 501
500 557
501 502
502 558
503 504
503 559
504 505
505 560
506 507
506 562
507 508
508 563
509 510
509 564
510 511
511 565
512 513
512 566
513 514
514 567
515 516
515 569
516 517
517 570
518 519
518 571
519 520
520 572
521 522
521 574
522 523
523 575
524 577
524 578
525 578
525 579
526 580
526 581
527 581
527 582
528 583
528 584
529 584
529 585
530 652
531 586
531 587
532 587
532 588
533 589
533 590
534 590
534 591
535 592
535 593
536 593
536 594
537 595
537 596
538 596
538 597
539 598
539 599
540 599
540 600
541 601
541 602
542 602
542 603
543 604
543 605
544 605
544 606
545 607
545 608
546 608
546 609
547 610
547 611
548 611
548 612
549 613
549 614
550 614
550 615
551 673
552 616
552 617
553 617
553 618
554 619
554 620
555 620
555 621
556 622
556 623
557 623
557 624
558 625
558 626
559 626
559 627
560 682
561 628
561 629
562 629
562 630
563 631
563 632
564 632
564 633
565 634
565 635
566 635
566 636
567 689
568 637
568 638
569 638
569 639
570 640
570 641
571 641
571 642
572 694
573 643
573 644
574 644
574 645
575 697
576 698
577 578
577 646
578 579
579 647
580 581
580 648
581 582
582 649
583 584
583 650
584 585
585 651
586 587
586 653
587 588
588 654
589 590
589 655
590 591
591 656
592 593
592 657
593 594
594 658
595 596
595 659
596 597
597 660
598 599
598 661
599 600
600 662
601 602
601 663
602 603
603 664
604 605
604 665
605 606
606 666
607 608
607 667
608 609
609 668
610 611
610 669
611 612
612 670
613 614
613 671
614 615
615 672
616 617
616 674
617 618
618 675
619 620
619 676
620 621
621 677
622 623
622 678
623 624
624 679
625 626
625 680
626 627
627 681
628 629
628 683
629 630
630 684
631 632
631 685
632 633
633 686
634 635
634 687
635 636
636 688
637 638
637 690
638 639
639 691
640 641
640 692
641 642
642 693
643 644
643 695
644 645
645 696
646 759
647 760
648 761
649 699
649 700
650 700
650 701
651 764
652 702
652 703
653 703
653 704
654 705
654 706
655 706
655 707
656 769
657 770
658 708
658 709
659 709
659 710
660 711
660 712
661 712
661 713
662 714
662 715
663 715
663 716
664 777
665 778
666 717
666 718
667 718
667 719
668 720
668 721
669 721
669 722
670 723
670 724
671 724
671 725
672 726
672 727
673 727
673 728
674 787
675 729
675 730
676 730
676 731
677 732
677 733
678 733
678 734
679 735
679 736
680 736
680 737
681 738
681 739
682 739
682 740
683 796
684 741
684 742
685 742
685 743
686 744
686 745
687 745
687 746
688 747
688 748
689 748
689 749
690 803
691 750
691 751
692 751
692 752
693 753
693 754
694 754
694 755
695 808
696 756
696 757
697 757
697 758
698 811
699 700
699 762
700 701
701 763
702 703
702 765
703 704
704 766
705 706
705 767
706 707
707 768
708 709
708 771
709 710
710 772
711 712
711 773
712 713
713 774
714 715
714 775
715 716
716 776
717 718
717 779
718 719
719 780
720 721
720 781
721 722
722 782
723 724
723 783
724 725
725 784
726 727
726 785
727 728
728 786
729 730
729 788
730 731
731 789
732 733
732 790
733 734
734 791
735 736
735 792
736 737
737 793
738 739
738 794
739 740
740 795
741 742
741 797
742 743
743 798
744 745
744 799
745 746
746 800
747 748
747 801
748 749
749 802
750 751
750 804
751 752
752 805
753 754
753 806
754 755
755 807
756 757
756 809
757 758
758 810
759 884
760 812
760 813
761 886
762 815
762 816
763 813
763 814
764 818
764 819
765 821
765 822
766 816
766 817
767 824
767 825
768 819
768 820
769 827
769 828
770 895
771 830
771 831
772 822
772 823
773 833
773 834
774 825
774 826
775 836
775 837
776 828
776 829
777 839
777 840
778 903
779 842
779 843
780 831
780 832
781 845
781 846
782 834
782 835
783 848
783 849
784 837
784 838
785 851
785 852
786 840
786 841
787 912
788 854
788 855
789 843
789 844
790 857
790 858
791 846
791 847
792 860
792 861
793 849
793 850
794 863
794 864
795 852
795 853
796 855
796 856
797 866
797 867
798 858
798 859
799 869
799 870
800 861
800 862
801 872
801 873
802 864
802 865
803 867
803 868
804 875
804 876
805 870
805 871
806 878
806 879
807 873
807 874
808 876
808 877
809 881
809 882
810 879
810 880
811 882
811 883
812 813
812 885
813 814
814 888
815 816
815 887
816 817
817 891
818 819
818 889
819 820
820 893
821 822
821 890
822 823
823 897
824 825
824 892
825 826
826 899
827 828
827 894
828 829
829 901
830 831
830 896
831 832
832 905
833 834
833 898
834 835
835 907
836 837
836 900
837 838
838 909
839 840
839 902
840 841
841 911
842 843
842 904
843 844
844 914
845 846
845 906
846 847
847 916
848 849
848 908
849 850
850 918
851 852
851 910
852 853
853 920
854 855
854 913
855 856
856 921
857 858
857 915
858 859
859 923
860 861
860 917
861 862
862 925
863 864
863 919
864 865
865 927
866 867
866 922
867 868
868 928
869 870
869 924
870 871
871 930
872 873
872 926
873 874
874 932
875 876
875 929
876 877
877 933
878 879
878 931
879 880
880 935
881 882
881 934
882 883
883 936
884 937
884 938
885 995
886 940
886 941
887 938
887 939
888 943
888 944
889 999
890 941
890 942
891 946
891 947
892 944
892 945
893 949
893 950
894 1004
895 952
895 953
896 1006
897 955
897 956
898 947
898 948
899 958
899 959
900 950
900 951
901 961
901 962
902 1012
903 964
903 965
904 953
904 954
905 967
905 968
906 956
906 957
907 970
907 971
908 959
908 960
909 973
909 974
910 962
910 963
911 1021
912 1022
913 965
913 966
914 976
914 977
915 968
915 969
916 979
916 980
917 971
917 972
918 982
918 983
919 974
919 975
920 1030
921 1031
922 977
922 978
923 985
923 986
924 980
924 981
925 988
925 989
926 983
926 984
927 1037
928 1038
929 986
929 987
930 991
930 992
931 989
931 990
932 1042
933 1043
934 992
934 993
935 1045
936 1046
937 938
937 994
938 939
939 997
940 941
940 996
941 942
942 1000
943 944
943 998
944 945
945 1002
946 947
946 1001
947 948
948 1008
949 950
949 1003
950 951
951 1010
952 953
952 1005
953 954
954 1014
955 956
955 1007
956 957
957 1016
958 959
958 1009
959 960
960 1018
961 962
961 1011
962 963
963 1020
964 965
964 1013
965 966
966 1023
967 968
967 1015
968 969
969 1025
970 971
970 1017
971 972
972 1027
973 974
973 1019
974 975
975 1029
976 977
976 1024
977 978
978 1032
979 980
979 1026
980 981
981 1034
982 983
982 1028
983 984
984 1036
985 986
985 1033
986 987
987 1039
988 989
988 1035
989 990
990 1041
991 992
991 1040
992 993
993 1044
994 1119
995 1047
995 1048
996 1121
997 1050
997 1051
998 1048
998 1049
999 1053
999 1054
1000 1056
1000 1057
1001 1051
1001 1052
1002 1059
1002 1060
1003 1054
1003 1055
1004 1062
1004 1063
1005 1130
1006 1065
1006 1066
1007 1057
1007 1058
1008 1068
1008 1069
1009 1060
1009 1061
1010 1071
1010 1072
1011 1063
1011 1064
1012 1074
1012 1075
1013 1138
1014 1077
1014 1078
1015 1066
1015 1067
1016 1080
1016 1081
1017 1069
1017 1070
1018 1083
1018 1084
1019 1072
1019 1073
1020 1086
1020 1087
1021 1075
1021 1076
1022 1147
1023 1089
1023 1090
1024 1078
1024 1079
1025 1092
1025 1093
1026 1081
1026 1082
1027 1095
1027 1096
1028 1084
1028 1085
1029 1098
1029 1099
1030 1087
1030 1088
1031 1090
1031 1091
1032 1101
1032 1102
1033 1093
1033 1094
1034 1104
1034 1105
1035 1096
1035 1097
1036 1107
1036 1108
1037 1099
1037 1100
1038 1102
1038 1103
1039 1110
1039 1111
1040 1105
1040 1106
1041 1113
1041 1114
1042 1108
1042 1109
1043 1111
1043 1112
1044 1116
1044 1117
1045 1114
1045 1115
1046 1117
1046 1118
1047 1048
1047 1120
1048 1049
1049 1123
1050 1051
1050 1122
1051 1052
1052 1126
1053 1054
1053 1124
1054 1055
1055 1128
1056 1057
1056 1125
1057 1058
1058 1132
1059 1060
1059 1127
1060 1061
1061 1134
1062 1063
1062 1129
1063 1064
1064 1136
1065 1066
1065 1131
1066 1067
1067 1140
1068 1069
1068 1133
1069 1070
1070 1142
1071 1072
1071 1135
1072 1073
1073 1144
1074 1075
1074 1137
1075 1076
1076 1146
1077 1078
1077 1139
1078 1079
1079 1149
1080 1081
1080 1141
1081 1082
1082 1151
1083 1084
1083 1143
1084 1085
1085 1153
1086 1087
1086 1145
1087 1088
1088 1155
1089 1090
1089 1148
1090 1091
1091 1156
1092 1093
1092 1150
1093 1094
1094 1158
1095 1096
1095 1152
1096 1097
1097 1160
1098 1099
1098 1154
1099 1100
1100 1162
1101 1102
1101 1157
1102 1103
1103 1163
1104 1105
1104 1159
1105 1106
1106 1165
1107 1108
1107 1161
1108 1109
1109 1167
1110 1111
1110 1164
1111 1112
1112 1168
1113 1114
1113 1166
1114 1115
1115 1170
1116 1117
1116 1169
1117 1118
1118 1171
1119 1172
1119 1173
1120 1230
1121 1175
1121 1176
1122 1173
1122 1174
1123 1178
1123 1179
1124 1234
1125 1176
1125 1177
1126 1181
1126 1182
1127 1179
1127 1180
1128 1184
1128 1185
1129 1239
1130 1187
1130 1188
1131 1241
1132 1190
1132 1191
1133 1182
1133 1183
1134 1193
1134 1194
1135 1185
1135 1186
1136 1196
1136 1197
1137 1247
1138 1199
1138 1200
1139 1188
1139 1189
1140 1202
1140 1203
1141 1191
1141 1192
1142 1205
1142 1206
1143 1194
1143 1195
1144 1208
1144 1209
1145 1197
1145 1198
1146 1256
1147 1257
1148 1200
1148 1201
1149 1211
1149 1212
1150 1203
1150 1204
1151 1214
1151 1215
1152 1206
1152 1207
1153 1217
1153 1218
1154 1209
1154 1210
1155 1265
1156 1266
1157 1212
1157 1213
1158 1220
1158 1221
1159 1215
1159 1216
1160 1223
1160 1224
1161 1218
1161 1219
1162 1272
1163 1273
1164 1221
1164 1222
1165 1226
1165 1227
1166 1224
1166 1225
1167 1277
1168 1278
1169 1227
1169 1228
1170 1280
1171 1281
1172 1173
1172 1229
1173 1174
1174 1232
1175 1176
1175 1231
1176 1177
1177 1235
1178 1179
1178 1233
1179 1180
1180 1237
1181 1182
1181 1236
1182 1183
1183 1243
1184 1185
1184 1238
1185 1186
1186 1245
1187 1188
1187 1240
1188 1189
1189 1249
1190 1191
1190 1242
1191 1192
1192 1251
1193 1194
1193 1244
1194 1195
1195 1253
1196 1197
1196 1246
1197 1198
1198 1255
1199 1200
1199 1248
1200 1201
1201 1258
1202 1203
1202 1250
1203 1204
1204 1260
1205 1206
1205 1252
1206 1207
1207 1262
1208 1209
1208 1254
1209 1210
1210 1264
1211 1212
1211 1259
1212 1213
1213 1267
1214 1215
1214 1261
1215 1216
1216 1269
1217 1218
1217 1263
1218 1219
1219 1271
1220 1221
1220 1268
1221 1222
1222 1274
1223 1224
1223 1270
1224 1225
1225 1276
1226 1227
1226 1275
1227 1228
1228 1279
1229 1282
1229 1283
1230 1283
1230 1284
1231 1285
1231 1286
1232 1286
1232 1287
1233 1288
1233 1289
1234 1289
1234 1290
1235 1357
1236 1291
1236 1292
1237 1292
1237 1293
1238 1294
1238 1295
1239 1295
1239 1296
1240 1297
1240 1298
1241 1298
1241 1299
1242 1300
1242 1301
1243 1301
1243 1302
1244 1303
1244 1304
1245 1304
1245 1305
1246 1306
1246 1307
1247 1307
1247 1308
1248 1309
1248 1310
1249 1310
1249 1311
1250 1312
1250 1313
1251 1313
1251 1314
1252 1315
1252 1316
1253 1316
1253 1317
1254 1318
1254 1319
1255 1319
1255 1320
1256 1378
1257 1321
1257 1322
1258 1322
1258 1323
1259 1324
1259 1325
1260 1325
1260 1326
1261 1327
1261 1328
1262 1328
1262 1329
1263 1330
1263 1331
1264 1331
1264 1332
1265 1387
1266 1333
1266 1334
1267 1334
1267 1335
1268 1336
1268 1337
1269 1337
1269 1338
1270 1339
1270 1340
1271 1340
1271 1341
1272 1394
1273 1342
1273 1343
1274 1343
1274 1344
1275 1345
1275 1346
1276 1346
1276 1347
1277 1399
1278 1348
1278 1349
1279 1349
1279 1350
1280 1402
1281 1403
1282 1283
1282 1351
1283 1284
1284 1352
1285 1286
1285 1353
1286 1287
1287 1354
1288 1289
1288 1355
1289 1290
1290 1356
1291 1292
1291 1358
1292 1293
1293 1359
1294 1295
1294 1360
1295 1296
1296 1361
1297 1298
1297 1362
1298 1299
1299 1363
1300 1301
1300 1364
1301 1302
1302 1365
1303 1304
1303 1366
1304 1305
1305 1367
1306 1307
1306 1368
1307 1308
1308 1369
1309 1310
1309 1370
1310 1311
1311 1371
1312 1313
1312 1372
1313 1314
1314 1373
1315 1316
1315 1374
1316 1317
1317 1375
1318 1319
1318 1376
1319 1320
1320 1377
1321 1322
1321 1379
1322 1323
1323 1380
1324 1325
1324 1381
1325 1326
1326 1382
1327 1328
1327 1383
1328 1329
1329 1384
1330 1331
1330 1385
1331 1332
1332 1386
1333 1334
1333 1388
1334 1335
1335 1389
1336 1337
1336 1390
1337 1338
1338 1391
1339 1340
1339 1392
1340 1341
1341 1393
1342 1343
1342 1395
1343 1344
1344 1396
1345 1346
1345 1397
1346 1347
1347 1398
1348 1349
1348 1400
1349 1350
1350 1401
1351 1464
1352 1465
1353 1466
1354 1404
1354 1405
1355 1405
1355 1406
1356 1469
1357 1407
1357 1408
1358 1408
1358 1409
1359 1410
1359 1411
1360 1411
1360 1412
1361 1474
1362 1475
1363 1413
1363 1414
1364 1414
1364 1415
1365 1416
1365 1417
1366 1417
1366 1418
1367 1419
1367 1420
1368 1420
1368 1421
1369 1482
1370 1483
1371 1422
1371 1423
1372 1423
1372 1424
1373 1425
1373 1426
1374 1426
1374 1427
1375 1428
1375 1429
1376 1429
1376 1430
1377 1431
1377 1432
1378 1432
1378 1433
1379 1492
1380 1434
1380 1435
1381 1435
1381 1436
1382 1437
1382 1438
1383 1438
1383 1439
1384 1440
1384 1441
1385 1441
1385 1442
1386 1443
1386 1444
1387 1444
1387 1445
1388 1501
1389 1446
1389 1447
1390 1447
1390 1448
1391 1449
1391 1450
1392 1450
1392 1451
1393 1452
1393 1453
1394 1453
1394 1454
1395 1508
1396 1455
1396 1456
1397 1456
1397 1457
1398 1458
1398 1459
1399 1459
1399 1460
1400 1513
1401 1461
1401 1462
1402 1462
1402 1463
1403 1516
1404 1405
1404 1467
1405 1406
1406 1468
1407 1408
1407 1470
1408 1409
1409 1471
1410 1411
1410 1472
1411 1412
1412 1473
1413 1414
1413 1476
1414 1415
1415 1477
1416 1417
1416 1478
1417 1418
1418 1479
1419 1420
1419 1480
1420 1421
1421 1481
1422 1423
1422 1484
1423 1424
1424 1485
1425 1426
1425 1486
1426 1427
1427 1487
1428 1429
1428 1488
1429 1430
1430 1489
1431 1432
1431 1490
1432 1433
1433 1491
1434 1435
1434 1493
1435 1436
1436 1494
1437 1438
1437 1495
1438 1439
1439 1496
1440 1441
1440 1497
1441 1442
1442 1498
1443 1444
1443 1499
1444 1445
1445 1500
1446 1447
1446 1502
1447 1448
1448 1503
1449 1450
1449 1504
1450 1451
1451 1505
1452 1453
1452 1506
1453 1454
1454 1507
1455 1456
1455 1509
1456 1457
1457 1510
1458 1459
1458 1511
1459 1460
1460 1512
1461 1462
1461 1514
1462 1463
1463 1515
1464 1517
1464 1518
1465 1518
1465 1519
1466 1520
1466 1521
1467 1521
1467 1522
1468 1523
1468 1524
1469 1524
1469 1525
1470 1592
1471 1526
1471 1527
1472 1527
1472 1528
1473 1529
1473 1530
1474 1530
1474 1531
1475 1532
1475 1533
1476 1533
1476 1534
1477 1535
1477 1536
1478 1536
1478 1537
1479 1538
1479 1539
1480 1539
1480 1540
1481 1541
1481 1542
1482 1542
1482 1543
1483 1544
1483 1545
1484 1545
1484 1546
1485 1547
1485 1548
1486 1548
1486 1549
1487 1550
1487 1551
1488 1551
1488 1552
1489 1553
1489 1554
1490 1554
1490 1555
1491 1613
1492 1556
1492 1557
1493 1557
1493 1558
1494 1559
1494 1560
1495 1560
1495 1561
1496 1562
1496 1563
1497 1563
1497 1564
1498 1565
1498 1566
1499 1566
1499 1567
1500 1622
1501 1568
1501 1569
1502 1569
1502 1570
1503 1571
1503 1572
1504 1572
1504 1573
1505 1574
1505 1575
1506 1575
1506 1576
1507 1629
1508 1577
1508 1578
1509 1578
1509 1579
1510 1580
1510 1581
1511 1581
1511 1582
1512 1634
1513 1583
1513 1584
1514 1584
1514 1585
1515 1637
1516 1638
1517 1518
1517 1586
1518 1519
1519 1587
1520 1521
1520 1588
1521 1522
1522 1589
1523 1524
1523 1590
1524 1525
1525 1591
1526 1527
1526 1593
1527 1528
1528 1594
1529 1530
1529 1595
1530 1531
1531 1596
1532 1533
1532 1597
1533 1534
1534 1598
1535 1536
1535 1599
1536 1537
1537 1600
1538 1539
1538 1601
1539 1540
1540 1602
1541 1542
1541 1603
1542 1543
1543 1604
1544 1545
1544 1605
1545 1546
1546 1606
1547 1548
1547 1607
1548 1549
1549 1608
1550 1551
1550 1609
1551 1552
1552 1610
1553 1554
1553 1611
1554 1555
1555 1612
1556 1557
1556 1614
1557 1558
1558 1615
1559 1560
1559 1616
1560 1561
1561 1617
1562 1563
1562 1618
1563 1564
1564 1619
1565 1566
1565 1620
1566 1567
1567 1621
1568 1569
1568 1623
1569 1570
1570 1624
1571 1572
1571 1625
1572 1573
1573 1626
1574 1575
1574 1627
1575 1576
1576 1628
1577 1578
1577 1630
1578 1579
1579 1631
1580 1581
1580 1632
1581 1582
1582 1633
1583 1584
1583 1635
1584 1585
1585 1636
1586 1699
1587 1700
1588 1701
1589 1639
1589 1640
1590 1640
1590 1641
1591 1704
1592 1642
1592 1643
1593 1643
1593 1644
1594 1645
1594 1646
1595 1646
1595 1647
1596 1709
1597 1710
1598 1648
1598 1649
1599 1649
1599 1650
1600 1651
1600 1652
1601 1652
1601 1653
1602 1654
1602 1655
1603 1655
1603 1656
1604 1717
1605 1718
1606 1657
1606 1658
1607 1658
1607 1659
1608 1660
1608 1661
1609 1661
1609 1662
1610 1663
1610 1664
1611 1664
1611 1665
1612 1666
1612 1667
1613 1667
1613 1668
1614 1727
1615 1669
1615 1670
1616 1670
1616 1671
1617 1672
1617 1673
1618 1673
1618 1674
1619 1675
1619 1676
1620 1676
1620 1677
1621 1678
1621 1679
1622 1679
1622 1680
1623 1736
1624 1681
1624 1682
1625 1682
1625 1683
1626 1684
1626 1685
1627 1685
1627 1686
1628 1687
1628 1688
1629 1688
1629 1689
1630 1743
1631 1690
1631 1691
1632 1691
1632 1692
1633 1693
1633 1694
1634 1694
1634 1695
1635 1748
1636 1696
1636 1697
1637 1697
1637 1698
1638 1751
1639 1640
1639 1702
1640 1641
1641 1703
1642 1643
1642 1705
1643 1644
1644 1706
1645 1646
1645 1707
1646 1647
1647 1708
1648 1649
1648 1711
1649 1650
1650 1712
1651 1652
1651 1713
1652 1653
1653 1714
1654 1655
1654 1715
1655 1656
1656 1716
1657 1658
1657 1719
1658 1659
1659 1720
1660 1661
1660 1721
1661 1662
1662 1722
1663 1664
1663 1723
1664 1665
1665 1724
1666 1667
1666 1725
1667 1668
1668 1726
1669 1670
1669 1728
1670 1671
1671 1729
1672 1673
1672 1730
1673 1674
1674 1731
1675 1676
1675 1732
1676 1677
1677 1733
1678 1679
1678 1734
1679 1680
1680 1735
1681 1682
1681 1737
1682 1683
1683 1738
1684 1685
1684 1739
1685 1686
1686 1740
1687 1688
1687 1741
1688 1689
1689 1742
1690 1691
1690 1744
1691 1692
1692 1745
1693 1694
1693 1746
1694 1695
1695 1747
1696 1697
1696 1749
1697 1698
1698 1750
